[4/30/19, 2:44:06 PM, INFO] Initialization of z.
[4/30/19, 2:44:06 PM, INFO] Initialization of Intern.
[4/30/19, 2:44:06 PM, INFO] Initialization of Rotation.
[4/30/19, 2:44:06 PM, INFO] Initialization of Week.
[4/30/19, 2:44:06 PM, INFO] Initialization of x.
[4/30/19, 2:44:06 PM, INFO] Initialization of D.
[4/30/19, 2:44:06 PM, INFO] Initialization of y1.
[4/30/19, 2:44:06 PM, INFO] Initialization of y2.
[4/30/19, 2:44:06 PM, INFO] Initialization of y3.
[4/30/19, 2:44:06 PM, INFO] Initialization of y4.
[4/30/19, 2:44:06 PM, INFO] Initialization of y5.
[4/30/19, 2:44:06 PM, INFO] Initialization of y6.
[4/30/19, 2:44:06 PM, INFO] Initialization of y7.
[4/30/19, 2:44:06 PM, INFO] Initialization of y8.
[4/30/19, 2:44:06 PM, INFO] Initialization of y9.
[4/30/19, 2:44:06 PM, INFO] Initialization of y10.
[4/30/19, 2:44:06 PM, INFO] Initialization of y11.
[4/30/19, 2:44:06 PM, INFO] Initialization of L1.
[4/30/19, 2:44:06 PM, INFO] Initialization of L2.
[4/30/19, 2:44:06 PM, INFO] Initialization of L3.
[4/30/19, 2:44:06 PM, WARN] Effective number of workers to be used for solve has been updated to: '10' (original value was: '0')
[4/30/19, 2:44:06 PM, INFO] CPXPARAM_Threads                                 10
[4/30/19, 2:44:06 PM, INFO] Tried aggregator 2 times.
[4/30/19, 2:44:06 PM, INFO] MIP Presolve eliminated 1045 rows and 3428 columns.
[4/30/19, 2:44:06 PM, INFO] MIP Presolve modified 322 coefficients.
[4/30/19, 2:44:06 PM, INFO] Aggregator did 2 substitutions.
[4/30/19, 2:44:06 PM, INFO] Reduced MIP has 7771 rows, 12955 columns, and 53728 nonzeros.
[4/30/19, 2:44:06 PM, INFO] Reduced MIP has 12955 binaries, 0 generals, 0 SOSs, and 0 indicators.
[4/30/19, 2:44:06 PM, INFO] Presolve time = 0.08 sec. (58.75 ticks)
[4/30/19, 2:44:07 PM, INFO] Probing fixed 286 vars, tightened 0 bounds.
[4/30/19, 2:44:07 PM, INFO] Probing time = 0.15 sec. (50.47 ticks)
[4/30/19, 2:44:07 PM, INFO] Tried aggregator 1 time.
[4/30/19, 2:44:07 PM, INFO] MIP Presolve eliminated 286 rows and 286 columns.
[4/30/19, 2:44:07 PM, INFO] Reduced MIP has 7485 rows, 12669 columns, and 52067 nonzeros.
[4/30/19, 2:44:07 PM, INFO] Reduced MIP has 12669 binaries, 0 generals, 0 SOSs, and 0 indicators.
[4/30/19, 2:44:07 PM, INFO] Presolve time = 0.07 sec. (49.36 ticks)
[4/30/19, 2:44:07 PM, INFO] Probing time = 0.04 sec. (5.85 ticks)
[4/30/19, 2:44:07 PM, INFO] Clique table members: 31283.
[4/30/19, 2:44:07 PM, INFO] MIP emphasis: balance optimality and feasibility.
[4/30/19, 2:44:07 PM, INFO] MIP search method: dynamic search.
[4/30/19, 2:44:07 PM, INFO] Parallel mode: deterministic, using up to 10 threads.
[4/30/19, 2:44:08 PM, INFO] Root relaxation solution time = 1.04 sec. (713.11 ticks)
[4/30/19, 2:44:08 PM, INFO]         Nodes                                         Cuts/
[4/30/19, 2:44:08 PM, INFO]    Node  Left     Objective  IInf  Best Integer    Best Bound    ItCnt     Gap
[4/30/19, 2:44:08 PM, INFO]       0     0      594.0000  1622                    594.0000        0         
[4/30/19, 2:44:14 PM, INFO]       0     0      594.0000  1041                   Cuts: 681     4450         
[4/30/19, 2:44:23 PM, INFO]       0     0      594.0000  1359                  Cuts: 1068    11680         
[4/30/19, 2:44:43 PM, INFO]       0     0      594.0000  1562                  Cuts: 1006    20457         
[4/30/19, 2:45:02 PM, INFO]       0     2      594.0000   770                    594.0000    20457         
[4/30/19, 2:45:02 PM, INFO] Elapsed time = 56.04 sec. (32228.32 ticks, tree = 0.01 MB, solutions = 0)
[4/30/19, 2:45:10 PM, INFO]       1     3      594.0000   755                    594.0000    34938         
[4/30/19, 2:45:16 PM, INFO]       2     4      594.0000  1048                    594.0000    42679         
[4/30/19, 2:45:20 PM, INFO]       3     5      594.0000   964                    594.0000    48967         
[4/30/19, 2:45:21 PM, INFO]       5     7      594.0000   969                    594.0000    50620         
[4/30/19, 2:45:22 PM, INFO]       8     4      594.0000  1032                    594.0000    42711         
[4/30/19, 2:45:23 PM, INFO]      10    12      594.0000   897                    594.0000    61615         
[4/30/19, 2:45:23 PM, INFO]      12    14      594.0000   894                    594.0000    63941         
[4/30/19, 2:45:23 PM, INFO]      18    20      594.0000   858                    594.0000    66385         
[4/30/19, 2:45:24 PM, INFO]      21    23      594.0000   870                    594.0000    70548         
[4/30/19, 2:45:26 PM, INFO]      54    22      594.0000   866                    594.0000    69676         
[4/30/19, 2:45:26 PM, INFO] Elapsed time = 80.01 sec. (46762.90 ticks, tree = 0.16 MB, solutions = 0)
[4/30/19, 2:45:29 PM, INFO]      99    28      594.0000   852                    594.0000    83981         
[4/30/19, 2:45:31 PM, INFO]     152    65      594.0000   727                    594.0000   122501         
[4/30/19, 2:45:33 PM, INFO]     259   214      594.0000   752                    594.0000   257805         
[4/30/19, 2:45:35 PM, INFO]     341   285      594.0000   646                    594.0000   349795         
[4/30/19, 2:45:37 PM, INFO]     428   340      594.0000   710                    594.0000   383754         
[4/30/19, 2:45:38 PM, INFO]     506   354      594.0000   696                    594.0000   388520         
[4/30/19, 2:45:40 PM, INFO]     569   409      594.0000   713                    594.0000   417492         
[4/30/19, 2:45:42 PM, INFO]     607   505      594.0000   553                    594.0000   449660         
[4/30/19, 2:45:44 PM, INFO]     669   539      594.0000   549                    594.0000   456243         
[4/30/19, 2:45:45 PM, INFO]     724   549      594.0000   580                    594.0000   463707         
[4/30/19, 2:45:45 PM, INFO] Elapsed time = 99.00 sec. (56393.41 ticks, tree = 6.74 MB, solutions = 0)
[4/30/19, 2:45:47 PM, INFO]     778   617      594.0000   624                    594.0000   488507         
[4/30/19, 2:45:49 PM, INFO]     850   679      594.0000   633                    594.0000   511259         
[4/30/19, 2:45:50 PM, INFO]     915   764      594.0000   601                    594.0000   538842         
[4/30/19, 2:45:52 PM, INFO]     988   809      594.0000   477                    594.0000   554802         
[4/30/19, 2:45:54 PM, INFO]    1065   799      594.0000   445                    594.0000   557226         
[4/30/19, 2:45:56 PM, INFO]    1136   918      594.0000   659                    594.0000   595607         
[4/30/19, 2:45:57 PM, INFO]    1240   950      594.0000   455                    594.0000   614301         
[4/30/19, 2:45:59 PM, INFO]    1401  1107      594.0000   477                    594.0000   660892         
[4/30/19, 2:46:01 PM, INFO]    1563  1230      594.0000   555                    594.0000   705463         
[4/30/19, 2:46:02 PM, INFO]    1686  1374      594.0000   409                    594.0000   750363         
[4/30/19, 2:46:02 PM, INFO] Elapsed time = 116.08 sec. (66066.03 ticks, tree = 19.90 MB, solutions = 0)
[4/30/19, 2:46:04 PM, INFO]    1815  1489      594.0000   541                    594.0000   786577         
[4/30/19, 2:46:06 PM, INFO]    1934  1709      594.0000   560                    594.0000   893691         
[4/30/19, 2:46:08 PM, INFO]    2099  1671      594.0000   703                    594.0000   878585         
[4/30/19, 2:46:10 PM, INFO]    2170  1776    infeasible                          594.0000   947734         
[4/30/19, 2:46:13 PM, INFO]    2202  1957    infeasible                          594.0000  1028209         
[4/30/19, 2:46:15 PM, INFO]    2227  1917    infeasible                          594.0000  1092854         
[4/30/19, 2:46:17 PM, INFO]    2259  1920    infeasible                          594.0000  1089037         
[4/30/19, 2:46:19 PM, INFO]    2289  1910    infeasible                          594.0000  1112945         
[4/30/19, 2:46:21 PM, INFO]    2315  1842    infeasible                          594.0000  1245966         
[4/30/19, 2:46:23 PM, INFO]    2348  1839    infeasible                          594.0000  1252035         
[4/30/19, 2:46:23 PM, INFO] Elapsed time = 136.84 sec. (75747.86 ticks, tree = 26.56 MB, solutions = 0)
[4/30/19, 2:46:25 PM, INFO]    2382  1792    infeasible                          594.0000  1332640         
[4/30/19, 2:46:27 PM, INFO]    2424  1771    infeasible                          594.0000  1374148         
[4/30/19, 2:46:29 PM, INFO]    2456  1764    infeasible                          594.0000  1391777         
[4/30/19, 2:46:32 PM, INFO]    2486  1707    infeasible                          594.0000  1497785         
[4/30/19, 2:46:34 PM, INFO]    2504  1650    infeasible                          594.0000  1603909         
[4/30/19, 2:46:35 PM, INFO]    2518  1667    infeasible                          594.0000  1553058         
[4/30/19, 2:46:38 PM, INFO]    2540  1618    infeasible                          594.0000  1698528         
[4/30/19, 2:46:40 PM, INFO]    2569  1609    infeasible                          594.0000  1714928         
[4/30/19, 2:46:42 PM, INFO]    2604  1613    infeasible                          594.0000  1710017         
[4/30/19, 2:46:44 PM, INFO]    2640  1565    infeasible                          594.0000  1832809         
[4/30/19, 2:46:44 PM, INFO] Elapsed time = 158.25 sec. (86004.11 ticks, tree = 21.16 MB, solutions = 0)
[4/30/19, 2:46:46 PM, INFO]    2675  1573    infeasible                          594.0000  1818129         
[4/30/19, 2:46:49 PM, INFO]    2705  1461    infeasible                          594.0000  2051581         
[4/30/19, 2:46:51 PM, INFO]    2729  1467    infeasible                          594.0000  2041139         
[4/30/19, 2:46:53 PM, INFO]    2759  1479    infeasible                          594.0000  2035378         
[4/30/19, 2:46:55 PM, INFO]    2794  1379    infeasible                          594.0000  2271046         
[4/30/19, 2:46:58 PM, INFO]    2833  1375    infeasible                          594.0000  2276964         
[4/30/19, 2:47:00 PM, INFO]    2859  1368    infeasible                          594.0000  2308658         
[4/30/19, 2:47:02 PM, INFO]    2886  1293    infeasible                          594.0000  2483209         
[4/30/19, 2:47:06 PM, INFO]    2907  1273    infeasible                          594.0000  2530276         
[4/30/19, 2:47:08 PM, INFO]    2922  1285    infeasible                          594.0000  2502475         
[4/30/19, 2:47:08 PM, INFO] Elapsed time = 181.79 sec. (96193.94 ticks, tree = 16.50 MB, solutions = 0)
[4/30/19, 2:47:09 PM, INFO]    2932  1269    infeasible                          594.0000  2536353         
[4/30/19, 2:47:11 PM, INFO]    2944  1239    infeasible                          594.0000  2592230         
[4/30/19, 2:47:14 PM, INFO]    2960  1209    infeasible                          594.0000  2678998         
[4/30/19, 2:47:18 PM, INFO]    2981  1224      594.0000   692                    594.0000  2636209         
[4/30/19, 2:47:21 PM, INFO]    3005  1202    infeasible                          594.0000  2689538         
[4/30/19, 2:47:23 PM, INFO]    3033  1192    infeasible                          594.0000  2796712         
[4/30/19, 2:47:25 PM, INFO]    3048  1203      594.0000   727                    594.0000  2764091         
[4/30/19, 2:47:28 PM, INFO]    3070  1205      594.0000   760                    594.0000  2815135         
[4/30/19, 2:47:32 PM, INFO]    3099  1207    infeasible                          594.0000  2817887         
[4/30/19, 2:47:34 PM, INFO]    3115  1189    infeasible                          594.0000  2832991         
[4/30/19, 2:47:34 PM, INFO] Elapsed time = 208.18 sec. (106232.07 ticks, tree = 19.53 MB, solutions = 0)
[4/30/19, 2:47:36 PM, INFO]    3124  1210      594.0000   817                    594.0000  2907900         
[4/30/19, 2:47:39 PM, INFO]    3136  1216      594.0000   751                    594.0000  2918225         
[4/30/19, 2:47:41 PM, INFO]    3149  1213    infeasible                          594.0000  2912903         
[4/30/19, 2:47:43 PM, INFO]    3171  1216      594.0000   927                    594.0000  2941479         
[4/30/19, 2:47:46 PM, INFO]    3188  1220      594.0000   855                    594.0000  2978589         
[4/30/19, 2:47:48 PM, INFO]    3197  1215      594.0000   865                    594.0000  2941642         
[4/30/19, 2:47:52 PM, INFO]    3229  1234      594.0000   685                    594.0000  3016365         
[4/30/19, 2:47:54 PM, INFO]    3247  1257      594.0000   786                    594.0000  3040936         
[4/30/19, 2:47:57 PM, INFO]    3269  1253      594.0000   703                    594.0000  3037530         
[4/30/19, 2:48:00 PM, INFO]    3296  1266      594.0000   712                    594.0000  3054022         
[4/30/19, 2:48:00 PM, INFO] Elapsed time = 233.76 sec. (116398.69 ticks, tree = 26.08 MB, solutions = 0)
[4/30/19, 2:48:02 PM, INFO]    3316  1293      594.0000   606                    594.0000  3078986         
[4/30/19, 2:48:05 PM, INFO]    3346  1300      594.0000   643                    594.0000  3081965         
[4/30/19, 2:48:09 PM, INFO]    3360  1263    infeasible                          594.0000  3082514         
[4/30/19, 2:48:11 PM, INFO]    3378  1322      594.0000   675                    594.0000  3109211         
[4/30/19, 2:48:14 PM, INFO]    3402  1371      594.0000   773                    594.0000  3172996         
[4/30/19, 2:48:16 PM, INFO]    3416  1374      594.0000   699                    594.0000  3175862         
[4/30/19, 2:48:19 PM, INFO]    3436  1371    infeasible                          594.0000  3219641         
[4/30/19, 2:48:21 PM, INFO]    3454  1377      594.0000   787                    594.0000  3228283         
[4/30/19, 2:48:24 PM, INFO]    3467  1348      594.0000   849                    594.0000  3172634         
[4/30/19, 2:48:26 PM, INFO]    3486  1379      594.0000   864                    594.0000  3235179         
[4/30/19, 2:48:26 PM, INFO] Elapsed time = 259.87 sec. (126303.13 ticks, tree = 35.61 MB, solutions = 0)
[4/30/19, 2:48:28 PM, INFO]    3510  1411      594.0000   806                    594.0000  3316596         
[4/30/19, 2:48:31 PM, INFO]    3540  1406      594.0000   589                    594.0000  3264859         
[4/30/19, 2:48:33 PM, INFO]    3559  1424      594.0000   812                    594.0000  3334468         
[4/30/19, 2:48:37 PM, INFO]    3585  1462      594.0000   762                    594.0000  3375008         
[4/30/19, 2:48:40 PM, INFO]    3621  1468      594.0000   774                    594.0000  3375832         
[4/30/19, 2:48:45 PM, INFO]    3657  1507      594.0000   683                    594.0000  3423668         
[4/30/19, 2:48:46 PM, INFO]    3713  1517      594.0000   616                    594.0000  3424852         
[4/30/19, 2:48:48 PM, INFO]    3795  1535      594.0000   708                    594.0000  3444907         
[4/30/19, 2:48:50 PM, INFO]    3932  1561      594.0000   612                    594.0000  3485872         
[4/30/19, 2:48:57 PM, INFO]    4493  1810      594.0000   562                    594.0000  3566781         
[4/30/19, 2:48:57 PM, INFO] Elapsed time = 290.42 sec. (138917.16 ticks, tree = 56.63 MB, solutions = 0)
[4/30/19, 2:49:03 PM, INFO]    5016  2151      594.0000   994                    594.0000  3669841         
[4/30/19, 2:49:11 PM, INFO]    5418  2760      594.0000   593                    594.0000  3894734         
[4/30/19, 2:49:21 PM, INFO]    5551  2769      594.0000   630                    594.0000  3897423         
[4/30/19, 2:49:50 PM, INFO] GUB cover cuts applied:  2
[4/30/19, 2:49:50 PM, INFO] Clique cuts applied:  1205
[4/30/19, 2:49:50 PM, INFO] Cover cuts applied:  438
[4/30/19, 2:49:50 PM, INFO] Implied bound cuts applied:  595
[4/30/19, 2:49:50 PM, INFO] Flow cuts applied:  2
[4/30/19, 2:49:50 PM, INFO] Mixed integer rounding cuts applied:  197
[4/30/19, 2:49:50 PM, INFO] Zero-half cuts applied:  200
[4/30/19, 2:49:50 PM, INFO] Lift and project cuts applied:  1
[4/30/19, 2:49:50 PM, INFO] Gomory fractional cuts applied:  2
[4/30/19, 2:49:50 PM, INFO] Root node processing (before b&c):
[4/30/19, 2:49:50 PM, INFO]   Real time             =   55.63 sec. (32071.70 ticks)
[4/30/19, 2:49:50 PM, INFO] Parallel b&c, 10 threads:
[4/30/19, 2:49:50 PM, INFO]   Real time             =  287.94 sec. (142155.83 ticks)
[4/30/19, 2:49:50 PM, INFO]   Sync time (average)   =   63.49 sec.
[4/30/19, 2:49:50 PM, INFO]   Wait time (average)   =    0.02 sec.
[4/30/19, 2:49:50 PM, INFO]                           ------------
[4/30/19, 2:49:50 PM, INFO] Total (root+branch&cut) =  343.57 sec. (174227.54 ticks)
[4/30/19, 2:49:50 PM, INFO] Total time spent in post processing: 0 msecs.
[4/30/19, 2:49:50 PM, INFO] Solve finished with status: INFEASIBLE_SOLUTION.
